NAME 
ROWS
 N  OBJ
 L  R0      
 L  R1      
 L  R2      
 E  R3      
 E  R4      
 E  R5      
 E  R6      
 E  R7      
 E  R8      
 E  R9      
 E  R10     
 E  R11     
 E  R12     
 E  R13     
 E  R14     
 E  R15     
 E  R16     
 E  R17     
COLUMNS
    MARKER    'MARKER'                 'INTORG'
    I0(10)    OBJ       102
    I0(10)    R0        2
    I0(10)    R1        -161
    I0(10)    R2        -194
    I0(10)    R3        10
    I0(10)    R5        2
    I0(10)    R7        8
    I0(10)    R8        17
    I0(10)    R9        12
    I0(10)    R10       14
    I0(10)    R17       1
    I1(9)     OBJ       -70
    I1(9)     R0        121
    I1(9)     R1        33
    I1(9)     R2        131
    I1(9)     R3        2
    I1(9)     R4        11
    I1(9)     R5        12
    I1(9)     R6        10
    I1(9)     R8        9
    I1(9)     R17       1
    I2(9)     OBJ       -165
    I2(9)     R0        83
    I2(9)     R1        -61
    I2(9)     R2        -74
    I2(9)     R3        18
    I2(9)     R4        7
    I2(9)     R7        11
    I2(9)     R8        13
    I2(9)     R11       9
    I2(9)     R17       1
    I3(7)     OBJ       99
    I3(7)     R0        48
    I3(7)     R1        24
    I3(7)     R2        97
    I3(7)     R4        19
    I3(7)     R6        18
    I3(7)     R7        15
    I3(7)     R17       1
    I4(6)     OBJ       -94
    I4(6)     R0        -109
    I4(6)     R1        8
    I4(6)     R2        137
    I4(6)     R4        1
    I4(6)     R7        4
    I4(6)     R17       1
    I5(10)    OBJ       -190
    I5(10)    R0        -17
    I5(10)    R1        170
    I5(10)    R2        -163
    I5(10)    R3        17
    I5(10)    R5        14
    I5(10)    R6        18
    I5(10)    R9        18
    I5(10)    R10       10
    I5(10)    R11       19
    I5(10)    R17       1
    I6(9)     OBJ       28
    I6(9)     R0        -128
    I6(9)     R1        -195
    I6(9)     R2        135
    I6(9)     R3        3
    I6(9)     R6        2
    I6(9)     R7        10
    I6(9)     R8        10
    I6(9)     R10       10
    I6(9)     R17       1
    I7(10)    OBJ       196
    I7(10)    R0        128
    I7(10)    R1        107
    I7(10)    R2        -199
    I7(10)    R4        13
    I7(10)    R5        9
    I7(10)    R6        16
    I7(10)    R8        11
    I7(10)    R10       18
    I7(10)    R11       1
    I7(10)    R17       1
    I8(10)    OBJ       121
    I8(10)    R0        -168
    I8(10)    R1        -155
    I8(10)    R2        -156
    I8(10)    R3        13
    I8(10)    R4        19
    I8(10)    R5        16
    I8(10)    R7        7
    I8(10)    R9        18
    I8(10)    R11       8
    I8(10)    R17       1
    MARKER    'MARKER'                 'INTEND'
    C9(7)     OBJ       -10
    C9(7)     R0        -2
    C9(7)     R1        2
    C9(7)     R2        -4
    C9(7)     R4        17
    C9(7)     R12       3
    C9(7)     R13       1
    C9(7)     R14       4
    C10(10)   R0        8
    C10(10)   R1        6
    C10(10)   R2        5
    C10(10)   R3        10
    C10(10)   R4        19
    C10(10)   R7        17
    C10(10)   R9        5
    C10(10)   R11       15
    C10(10)   R12       15
    C10(10)   R13       2
    C11(7)    OBJ       -1
    C11(7)    R0        -3
    C11(7)    R1        -9
    C11(7)    R2        9
    C11(7)    R3        8
    C11(7)    R6        18
    C11(7)    R7        3
    C11(7)    R11       8
    C12(8)    R0        7
    C12(8)    R1        -10
    C12(8)    R2        -6
    C12(8)    R3        8
    C12(8)    R7        19
    C12(8)    R8        13
    C12(8)    R9        19
    C12(8)    R15       9
    C13(13)   OBJ       -8
    C13(13)   R0        -6
    C13(13)   R1        -2
    C13(13)   R2        -2
    C13(13)   R4        3
    C13(13)   R5        7
    C13(13)   R7        1
    C13(13)   R9        19
    C13(13)   R10       17
    C13(13)   R11       6
    C13(13)   R12       -1
    C13(13)   R13       11
    C13(13)   R14       5
    C13(13)   R16       14
    C14(9)    OBJ       8
    C14(9)    R0        -2
    C14(9)    R2        -9
    C14(9)    R3        4
    C14(9)    R4        7
    C14(9)    R5        19
    C14(9)    R7        12
    C14(9)    R8        5
    C14(9)    R14       18
    C14(9)    R16       7
    C15(1)    R3        1
    C16(1)    R4        1
    C17(1)    R5        1
    C18(1)    R6        1
    C19(1)    R7        1
    C20(1)    R8        1
    C21(1)    R9        1
    C22(1)    R10       1
    C23(1)    R11       1
    C24(1)    R12       1
    C25(1)    R13       1
    C26(1)    R14       1
    C27(1)    R15       1
    C28(1)    R16       1
    C29(1)    R17       1
RHS
    RHS1      R0        2.3687306501549241e+01
    RHS1      R1        277.786377708977
    RHS1      R2        -4.1746749226005932e+02
    RHS1      R3        52
    RHS1      R4        63
    RHS1      R5        85
    RHS1      R6        70
    RHS1      R7        60
    RHS1      R8        74
    RHS1      R9        99
    RHS1      R10       84
    RHS1      R11       96
    RHS1      R12       66
    RHS1      R13       90
    RHS1      R14       95
    RHS1      R15       53
    RHS1      R16       94
    RHS1      R17       3
BOUNDS
 UP BND1      I0(10)    2
 UP BND1      I1(9)     2
 UP BND1      I2(9)     2
 UP BND1      I3(7)     2
 UP BND1      I4(6)     2
 UP BND1      I5(10)    2
 UP BND1      I6(9)     2
 UP BND1      I7(10)    2
 UP BND1      I8(10)    2
ENDATA
